&CONTROL
    calculation = "scf"
    etot_conv_thr =   2.0000000000d-04
    forc_conv_thr =   1.0000000000d-04
    restart_mode = "from_scratch"
    pseudo_dir  = "~/CsPbBr3/PP"
    prefix = "unified"
    outdir = "~/CsPbBr3"
/

&SYSTEM
   ecutrho =   7.2000000000d+02
   ecutwfc =   9.0000000000d+01
   ibrav = 0
   nat = 160
   ntyp = 3

/

&ELECTRONS
    conv_thr         =  1.00000e-07
    electron_maxstep = 100
    mixing_beta      =  4.00000e-01
    startingpot      = "atomic"
    startingwfc      = "atomic+random"
/

K_POINTS automatic
2 2 2 1 1 1
!    ibrav = 0, nat = 160, ntyp = 3
CELL_PARAMETERS bohr
   30.9847056335215427    0.0000000000000000    0.0000000000000000
    0.0000000000000000   31.1578045476752941    0.0000000000000000
    0.0000000000000000    0.0000000000000000   44.3522503817836409
ATOMIC_SPECIES
 Pb  207.20000   Pb.pbesol-dn-rrkjus_psl.1.0.0.UPF
 Cs  132.90545   Cs.pbesol-spn-rrkjus_psl.1.0.0.UPF
 Br   79.90400   Br.pbesol-dn-rrkjus_psl.1.0.0.UPF
ATOMIC_POSITIONS crystal
 Pb   0.0000000000000000  0.0000000000000000  0.2500000000000000
 Pb   0.4999999999999999  0.0000000000000000  0.2500000000000000
 Pb   0.0000000000000000  0.5000000000000000  0.2500000000000000
 Pb   0.4999999999999999  0.5000000000000000  0.2500000000000000
 Pb   0.0000000000000000  0.0000000000000000  0.7500000000000000
 Pb   0.4999999999999999  0.0000000000000000  0.7500000000000000
 Pb   0.0000000000000000  0.5000000000000000  0.7500000000000000
 Pb   0.4999999999999999  0.5000000000000000  0.7500000000000000
 Pb   0.2500000000000000  0.2500000000000000  0.2500000000000000
 Pb   0.7500000000000000  0.2500000000000000  0.2500000000000000
 Pb   0.2500000000000000  0.7500000000000000  0.2500000000000000
 Pb   0.7500000000000000  0.7500000000000000  0.2500000000000000
 Pb   0.2500000000000000  0.2500000000000000  0.7500000000000000
 Pb   0.7500000000000000  0.2500000000000000  0.7500000000000000
 Pb   0.2500000000000000  0.7500000000000000  0.7500000000000000
 Pb   0.7500000000000000  0.7500000000000000  0.7500000000000000
 Pb   0.0000000000000000  0.0000000000000000  0.0000000000000000
 Pb   0.4999999999999999  0.0000000000000000  0.0000000000000000
 Pb   0.0000000000000000  0.5000000000000000  0.0000000000000000
 Pb   0.4999999999999999  0.5000000000000000  0.0000000000000000
 Pb   0.0000000000000000  0.0000000000000000  0.5000000000000000
 Pb   0.4999999999999999  0.0000000000000000  0.5000000000000000
 Pb   0.0000000000000000  0.5000000000000000  0.5000000000000000
 Pb   0.4999999999999999  0.5000000000000000  0.5000000000000000
 Pb   0.2500000000000000  0.2500000000000000  0.0000000000000000
 Pb   0.7500000000000000  0.2500000000000000  0.0000000000000000
 Pb   0.2500000000000000  0.7500000000000000  0.0000000000000000
 Pb   0.7500000000000000  0.7500000000000000  0.0000000000000000
 Pb   0.2500000000000000  0.2500000000000000  0.5000000000000000
 Pb   0.7500000000000000  0.2500000000000000  0.5000000000000000
 Pb   0.2500000000000000  0.7500000000000000  0.5000000000000000
 Pb   0.7500000000000000  0.7500000000000000  0.5000000000000000
 Cs   0.0035000000000000  0.2655000000000000  0.1250000000000000
 Cs   0.5034999999999999  0.2655000000000000  0.1250000000000000
 Cs   0.0035000000000000  0.7655000000000001  0.1250000000000000
 Cs   0.5034999999999999  0.7655000000000001  0.1250000000000000
 Cs   0.0035000000000000  0.2655000000000000  0.6250000000000000
 Cs   0.5034999999999999  0.2655000000000000  0.6250000000000000
 Cs   0.0035000000000000  0.7655000000000001  0.6250000000000000
 Cs   0.5034999999999999  0.7655000000000001  0.6250000000000000
 Cs   0.4965000000000000  0.2345000000000000  0.3750000000000000
 Cs   0.9964999999999998  0.2345000000000000  0.3750000000000000
 Cs   0.4965000000000000  0.7344999999999999  0.3750000000000000
 Cs   0.9964999999999998  0.7344999999999999  0.3750000000000000
 Cs   0.4965000000000000  0.2345000000000000  0.8750000000000001
 Cs   0.9964999999999998  0.2345000000000000  0.8750000000000001
 Cs   0.4965000000000000  0.7344999999999999  0.8750000000000001
 Cs   0.9964999999999998  0.7344999999999999  0.8750000000000001
 Cs   0.2535000000000000  0.4845000000000000  0.3750000000000000
 Cs   0.7535000000000001  0.4845000000000000  0.3750000000000000
 Cs   0.2535000000000000  0.9844999999999999  0.3750000000000000
 Cs   0.7535000000000001  0.9844999999999999  0.3750000000000000
 Cs   0.2535000000000000  0.4845000000000000  0.8750000000000001
 Cs   0.7535000000000001  0.4845000000000000  0.8750000000000001
 Cs   0.2535000000000000  0.9844999999999999  0.8750000000000001
 Cs   0.7535000000000001  0.9844999999999999  0.8750000000000001
 Cs   0.2465000000000000  0.0155000000000000  0.1250000000000000
 Cs   0.7464999999999998  0.0155000000000000  0.1250000000000000
 Cs   0.2465000000000000  0.5155000000000000  0.1250000000000000
 Cs   0.7464999999999998  0.5155000000000000  0.1250000000000000
 Cs   0.2465000000000000  0.0155000000000000  0.6250000000000000
 Cs   0.7464999999999998  0.0155000000000000  0.6250000000000000
 Cs   0.2465000000000000  0.5155000000000000  0.6250000000000000
 Cs   0.7464999999999998  0.5155000000000000  0.6250000000000000
 Br   0.1030350000000000  0.1467350000000000  0.2385059354052577
 Br   0.6030350000000000  0.1467350000000000  0.2380550000000000
 Br   0.1030350000000000  0.6467350000000001  0.2380550000000000
 Br   0.6030350000000000  0.6467350000000001  0.2380550000000000
 Br   0.1030350000000000  0.1467350000000000  0.7380550000000000
 Br   0.6030350000000000  0.1467350000000000  0.7380550000000000
 Br   0.1030350000000000  0.6467350000000001  0.7380550000000000
 Br   0.6030350000000000  0.6467350000000001  0.7380550000000000
 Br   0.3969650000000000  0.3532650000000000  0.2619450000000000
 Br   0.8969650000000000  0.3532650000000000  0.2619450000000000
 Br   0.3969650000000000  0.8532650000000001  0.2619450000000000
 Br   0.8969650000000000  0.8532650000000001  0.2619450000000000
 Br   0.3969650000000000  0.3532650000000000  0.7619449999999999
 Br   0.8969650000000000  0.3532650000000000  0.7619449999999999
 Br   0.3969650000000000  0.8532650000000001  0.7619449999999999
 Br   0.8969650000000000  0.8532650000000001  0.7619449999999999
 Br   0.3530349999999999  0.1032650000000000  0.2619450000000000
 Br   0.8530349999999999  0.1032650000000000  0.2619450000000000
 Br   0.3530349999999999  0.6032649999999999  0.2619450000000000
 Br   0.8530349999999999  0.6032649999999999  0.2619450000000000
 Br   0.3530349999999999  0.1032650000000000  0.7619449999999999
 Br   0.8530349999999999  0.1032650000000000  0.7619449999999999
 Br   0.3530349999999999  0.6032649999999999  0.7619449999999999
 Br   0.8530349999999999  0.6032649999999999  0.7619449999999999
 Br   0.1469650000000000  0.3967350000000000  0.2380550000000000
 Br   0.6469650000000000  0.3967350000000000  0.2380550000000000
 Br   0.1469650000000000  0.8967350000000002  0.2380550000000000
 Br   0.6469650000000000  0.8967350000000002  0.2380550000000000
 Br   0.1469650000000000  0.3967350000000000  0.7380550000000000
 Br   0.6469650000000000  0.3967350000000000  0.7380550000000000
 Br   0.1469650000000000  0.8967350000000002  0.7380550000000000
 Br   0.6469650000000000  0.8967350000000002  0.7380550000000000
 Br   0.3969650000000000  0.3532650000000000  0.4880550000000001
 Br   0.8969650000000000  0.3532650000000000  0.4880550000000001
 Br   0.3969650000000000  0.8532650000000001  0.4880550000000001
 Br   0.8969650000000000  0.8532650000000001  0.4880550000000001
 Br   0.3969650000000000  0.3532650000000000  0.9880550000000000
 Br   0.8969650000000000  0.3532650000000000  0.9880550000000000
 Br   0.3969650000000000  0.8532650000000001  0.9880550000000000
 Br   0.8969650000000000  0.8532650000000001  0.9880550000000000
 Br   0.1030350000000000  0.1467350000000000  0.0119450000000000
 Br   0.6030350000000000  0.1467350000000000  0.0119450000000000
 Br   0.1030350000000000  0.6467350000000001  0.0119450000000000
 Br   0.6030350000000000  0.6467350000000001  0.0119450000000000
 Br   0.1030350000000000  0.1467350000000000  0.5119450000000000
 Br   0.6030350000000000  0.1467350000000000  0.5119450000000000
 Br   0.1030350000000000  0.6467350000000001  0.5119450000000000
 Br   0.6030350000000000  0.6467350000000001  0.5119450000000000
 Br   0.1469650000000000  0.3967350000000000  0.0119450000000000
 Br   0.6469650000000000  0.3967350000000000  0.0119450000000000
 Br   0.1469650000000000  0.8967350000000002  0.0119450000000000
 Br   0.6469650000000000  0.8967350000000002  0.0119450000000000
 Br   0.1469650000000000  0.3967350000000000  0.5119450000000000
 Br   0.6469650000000000  0.3967350000000000  0.5119450000000000
 Br   0.1469650000000000  0.8967350000000002  0.5119450000000000
 Br   0.6469650000000000  0.8967350000000002  0.5119450000000000
 Br   0.3530349999999999  0.1032650000000000  0.4880550000000001
 Br   0.8530349999999999  0.1032650000000000  0.4880550000000001
 Br   0.3530349999999999  0.6032649999999999  0.4880550000000001
 Br   0.8530349999999999  0.6032649999999999  0.4880550000000001
 Br   0.3530349999999999  0.1032650000000000  0.9880550000000000
 Br   0.8530349999999999  0.1032650000000000  0.9880550000000000
 Br   0.3530349999999999  0.6032649999999999  0.9880550000000000
 Br   0.8530349999999999  0.6032649999999999  0.9880550000000000
 Br   0.0227500000000000  0.0018500000000000  0.3750000000000000
 Br   0.5227500000000000  0.0018500000000000  0.3750000000000000
 Br   0.0227500000000000  0.5018500000000000  0.3750000000000000
 Br   0.5227500000000000  0.5018500000000000  0.3750000000000000
 Br   0.0227500000000000  0.0018500000000000  0.8750000000000001
 Br   0.5227500000000000  0.0018500000000000  0.8750000000000001
 Br   0.0227500000000000  0.5018500000000000  0.8750000000000001
 Br   0.5227500000000000  0.5018500000000000  0.8750000000000001
 Br   0.4772500000000000  0.4981500000000000  0.1250000000000000
 Br   0.9772500000000000  0.4981500000000000  0.1250000000000000
 Br   0.4772500000000000  0.9981500000000001  0.1250000000000000
 Br   0.9772500000000000  0.9981500000000001  0.1250000000000000
 Br   0.4772500000000000  0.4981500000000000  0.6250000000000000
 Br   0.9772500000000000  0.4981500000000000  0.6250000000000000
 Br   0.4772500000000000  0.9981500000000001  0.6250000000000000
 Br   0.9772500000000000  0.9981500000000001  0.6250000000000000
 Br   0.2727499999999999  0.2481500000000000  0.1250000000000000
 Br   0.7727500000000000  0.2481500000000000  0.1250000000000000
 Br   0.2727499999999999  0.7481500000000001  0.1250000000000000
 Br   0.7727500000000000  0.7481500000000001  0.1250000000000000
 Br   0.2727499999999999  0.2481500000000000  0.6250000000000000
 Br   0.7727500000000000  0.2481500000000000  0.6250000000000000
 Br   0.2727499999999999  0.7481500000000001  0.6250000000000000
 Br   0.7727500000000000  0.7481500000000001  0.6250000000000000
 Br   0.2272500000000000  0.2518500000000000  0.3750000000000000
 Br   0.7272500000000000  0.2518500000000000  0.3750000000000000
 Br   0.2272500000000000  0.7518500000000001  0.3750000000000000
 Br   0.7272500000000000  0.7518500000000001  0.3750000000000000
 Br   0.2272500000000000  0.2518500000000000  0.8750000000000001
 Br   0.7272500000000000  0.2518500000000000  0.8750000000000001
 Br   0.2272500000000000  0.7518500000000001  0.8750000000000001
 Br   0.7272500000000000  0.7518500000000001  0.8750000000000001