&CONTROL
    calculation = "scf"
    restart_mode = "from_scratch"
    pseudo_dir  = "./PP"
    prefix = "unified"
    outdir = "./"
/

&SYSTEM
    a                         =  8.19828e+00
    b                         =  8.24407e+00
    c                         =  1.17351e+01
    degauss                   =  1.00000e-02
    ecutrho                   =  4.00000e+02
    ecutwfc                   =  5.00000e+01
    ibrav                     = 8
    lspinorb                  = .TRUE.
    nat                       = 20
    noncolin                  = .TRUE.
    nosym                     = .FALSE.
    ntyp                      = 3
/

&ELECTRONS
    conv_thr         =  1.00000e-07
    electron_maxstep = 100
    mixing_beta      =  4.00000e-01
    startingpot      = "atomic"
    startingwfc      = "atomic+random"
/

K_POINTS {automatic}
 5  5  4  1 1 1

ATOMIC_SPECIES
Pb    207.20000  Pb.pbesol-dn-rrkjus_psl.1.0.0.UPF
Cs    132.90545  Cs.pbesol-spn-rrkjus_psl.1.0.0.UPF
Br     79.90400  Br.pbesol-dn-rrkjus_psl.1.0.0.UPF

ATOMIC_POSITIONS {angstrom}
Pb      0.000000   0.000000   5.867556
Pb      4.099140   4.122035   5.867556
Pb      0.000000   0.000000   0.000000
Pb      4.099140   4.122035   0.000000
Cs      0.057552   4.377271   2.933778
Cs      8.140728   3.866799   8.801333
Cs      4.156692   7.988834   8.801333
Cs      4.041588   0.255236   2.933778
Br      1.689434   2.419402   5.587220
Br      6.508846   5.824668   6.147891
Br      5.788574   1.702633   6.147891
Br      2.409706   6.541437   5.587220
Br      6.508846   5.824668  11.454776
Br      1.689434   2.419402   0.280335
Br      2.409706   6.541437   0.280335
Br      5.788574   1.702633  11.454776
Br      0.373350   0.030833   8.801333
Br      7.824930   8.213237   2.933778
Br      4.472490   4.091202   2.933778
Br      3.725790   4.152868   8.801333


